db/inputs/2193326200176531530619685206362516723997.smt2
(set-logic QF_FP)
(declare-const x0 (_ FloatingPoint 11 53))
(declare-const x1 (_ FloatingPoint 11 53))
(declare-const x2 (_ FloatingPoint 11 53))
(declare-const x3 (_ FloatingPoint 11 53))
(declare-const x4 (_ FloatingPoint 11 53))
(declare-const x5 (_ FloatingPoint 11 53))
(declare-const x6 (_ FloatingPoint 11 53))
(assert (fp.gt (fp.div RNE (fp.div RNE x3 x3) (fp.neg x6)) (fp.mul RNE (fp.div RNE x1 x4) (fp.add RNE x6 x4))))
(assert (fp.eq (fp.neg (fp.neg x0)) (fp.add RNE (fp.sub RNE x1 x2) (fp.neg x2))))
(check-sat)
