db/data/2193326200176531530619685206362516723997.z3.out
sat
-------------------
238.782958088
